# Solution for model meshILPv1
# Objective value = 640
x_[jug2] 0
x_[jug1] 2
x_[inmem2] 0
x_[HS] 1
x_[inmem1] 1
x_[mem] 2
x_[VS] 1
x_[odisp] 2
y_[jug2] 1
y_[jug1] 2
y_[inmem2] 0
y_[HS] 1
y_[inmem1] 0
y_[mem] 1
y_[VS] 2
y_[odisp] 0
C16 0
C17 1
C18 0
C19 0
C20 0
C21 0
C22 0
C23 0
C24 0
C25 0
C26 0
C27 0
C28 0
C29 0
C30 0
C31 0
C32 0
C33 1
C34 1
C35 0
C36 0
C37 0
C38 0
C39 0
C40 0
C41 0
C42 0
C43 0
C44 0
C45 0
C46 0
C47 1
C48 0
C49 0
C50 0
C51 0
C52 0
C53 0
C54 0
C55 1
C56 0
C57 0
C58 0
C59 0
C60 0
C61 0
C62 0
C63 0
C64 0
C65 0
C66 0
C67 0
C68 1
C69 0
C70 0
C71 0
C72 0
C73 0
C74 0
C75 1
C76 0
C77 0
C78 0
C79 0
C80 0
C81 0
C82 0
C83 0
C84 0
C85 1
C86 0
C87 0
xi_equals_p[jug2,0] 1
xi_equals_p[jug2,1] 0
xi_equals_p[jug2,2] 0
xi_equals_p[jug1,0] 0
xi_equals_p[jug1,1] 0
xi_equals_p[jug1,2] 1
xi_equals_p[inmem2,0] 1
xi_equals_p[inmem2,1] 0
xi_equals_p[inmem2,2] 0
xi_equals_p[HS,0] 0
xi_equals_p[HS,1] 1
xi_equals_p[HS,2] 0
xi_equals_p[inmem1,0] 0
xi_equals_p[inmem1,1] 1
xi_equals_p[inmem1,2] 0
xi_equals_p[mem,0] 0
xi_equals_p[mem,1] 0
xi_equals_p[mem,2] 1
xi_equals_p[VS,0] 0
xi_equals_p[VS,1] 1
xi_equals_p[VS,2] 0
xi_equals_p[odisp,0] 0
xi_equals_p[odisp,1] 0
xi_equals_p[odisp,2] 1
yi_equals_q[jug2,0] 0
yi_equals_q[jug2,1] 1
yi_equals_q[jug2,2] 0
yi_equals_q[jug1,0] 0
yi_equals_q[jug1,1] 0
yi_equals_q[jug1,2] 1
yi_equals_q[inmem2,0] 1
yi_equals_q[inmem2,1] 0
yi_equals_q[inmem2,2] 0
yi_equals_q[HS,0] 0
yi_equals_q[HS,1] 1
yi_equals_q[HS,2] 0
yi_equals_q[inmem1,0] 1
yi_equals_q[inmem1,1] 0
yi_equals_q[inmem1,2] 0
yi_equals_q[mem,0] 0
yi_equals_q[mem,1] 1
yi_equals_q[mem,2] 0
yi_equals_q[VS,0] 0
yi_equals_q[VS,1] 0
yi_equals_q[VS,2] 1
yi_equals_q[odisp,0] 1
yi_equals_q[odisp,1] 0
yi_equals_q[odisp,2] 0
dx_[jug2,mem] 2
dx_[jug1,mem] 0
dx_[inmem2,jug2] 0
dx_[HS,VS] 0
dx_[inmem1,inmem2] 1
dx_[inmem1,HS] 0
dx_[mem,odisp] 0
dx_[VS,jug1] 1
dy_[jug2,mem] 0
dy_[jug1,mem] 1
dy_[inmem2,jug2] 1
dy_[HS,VS] 1
dy_[inmem1,inmem2] 0
dy_[inmem1,HS] 1
dy_[mem,odisp] 1
dy_[VS,jug1] 0
